(declare-const term_to_project_onto Real)
(assert (exists ((|Id_MCDC_150'?1| Int) (Id_MCDC_150?2 Int))
         (and (<= (- Id_MCDC_150?2) 0) (<= (+ Id_MCDC_150?2 -3) 0)
                (= (+ |Id_MCDC_150'?1| (- Id_MCDC_150?2) -1) 0)
                (= term_to_project_onto (+ |Id_MCDC_150'?1| (- Id_MCDC_150?2))))))
(check-sat)
